
630.0
630.0
630.0
630.0
630.0
630.0
630.0
630.0
630.0
750.0
630.0
930.0
870.0
630.0
630.0
1110.0
630.0
630.0
630.0
630.0
960.0
630.0
630.0
630.0
630.0
630.0
630.0
630.0
630.0
630.0
720.0
630.0
720.0
630.0
1080.0
630.0
630.0
630.0
630.0
630.0
630.0
630.0
630.0
630.0
630.0
630.0
1080.0
630.0
630.0
660.0